NAME 
ROWS
 N  OBJ
 L  R0      
 L  R1      
 E  R2      
COLUMNS
    MARKER    'MARKER'                 'INTORG'
    I0(3)     OBJ       -820
    I0(3)     R0        -845
    I0(3)     R1        -8
    I0(3)     R2        679
    I1(3)     OBJ       -507
    I1(3)     R0        -120
    I1(3)     R1        -445
    I1(3)     R2        618
    I2(3)     OBJ       -89
    I2(3)     R0        -58
    I2(3)     R1        -600
    I2(3)     R2        866
    I3(3)     OBJ       -786
    I3(3)     R0        -286
    I3(3)     R1        -29
    I3(3)     R2        154
    I4(3)     OBJ       -342
    I4(3)     R0        -626
    I4(3)     R1        -482
    I4(3)     R2        765
    I5(3)     OBJ       -812
    I5(3)     R0        -608
    I5(3)     R1        -730
    I5(3)     R2        95
    I6(3)     OBJ       -919
    I6(3)     R0        -321
    I6(3)     R1        -377
    I6(3)     R2        971
    I7(3)     OBJ       -278
    I7(3)     R0        -752
    I7(3)     R1        -207
    I7(3)     R2        723
    I8(3)     OBJ       -195
    I8(3)     R0        -624
    I8(3)     R1        -259
    I8(3)     R2        242
    I9(3)     OBJ       -861
    I9(3)     R0        -970
    I9(3)     R1        -63
    I9(3)     R2        65
    I10(3)    OBJ       -351
    I10(3)    R0        -59
    I10(3)    R1        -134
    I10(3)    R2        877
    I11(3)    OBJ       -447
    I11(3)    R0        -444
    I11(3)    R1        -104
    I11(3)    R2        250
    I12(3)    OBJ       -21
    I12(3)    R0        -476
    I12(3)    R1        -183
    I12(3)    R2        509
    I13(3)    OBJ       -38
    I13(3)    R0        -147
    I13(3)    R1        -191
    I13(3)    R2        477
    I14(3)    OBJ       -130
    I14(3)    R0        -229
    I14(3)    R1        -389
    I14(3)    R2        278
    I15(3)    OBJ       -349
    I15(3)    R0        -817
    I15(3)    R1        -809
    I15(3)    R2        990
    I16(3)    OBJ       -725
    I16(3)    R0        -959
    I16(3)    R1        -799
    I16(3)    R2        206
    I17(3)    OBJ       -530
    I17(3)    R0        -148
    I17(3)    R1        -709
    I17(3)    R2        655
    I18(3)    OBJ       -687
    I18(3)    R0        -94
    I18(3)    R1        -560
    I18(3)    R2        196
    I19(3)    OBJ       -927
    I19(3)    R0        -154
    I19(3)    R1        -423
    I19(3)    R2        464
    I20(1)    R2        1
    MARKER    'MARKER'                 'INTEND'
RHS
    RHS1      R0        -5802
    RHS1      R1        -4895
    RHS1      R2        5040
BOUNDS
 UP BND1      I0(3)     1
 UP BND1      I1(3)     1
 UP BND1      I2(3)     1
 UP BND1      I3(3)     1
 UP BND1      I4(3)     1
 UP BND1      I5(3)     1
 UP BND1      I6(3)     1
 UP BND1      I7(3)     1
 UP BND1      I8(3)     1
 UP BND1      I9(3)     1
 UP BND1      I10(3)    1
 UP BND1      I11(3)    1
 UP BND1      I12(3)    1
 UP BND1      I13(3)    1
 UP BND1      I14(3)    1
 UP BND1      I15(3)    1
 UP BND1      I16(3)    1
 UP BND1      I17(3)    1
 UP BND1      I18(3)    1
 UP BND1      I19(3)    1
 LI BND1      I20(1)    0
ENDATA
